#########################################################################################################
# LAMMPS input file automatically generated by GPTA 2.0
#########################################################################################################
# Default run variables | 0 = .false. ; 1 = .true. 
#########################################################################################################

variable run_no   equal 0        # run ID 
variable minimise equal 0        # turns on initial energy minimisation 
variable lowt     equal 0        # turns on initial run at low T for free atoms only 
variable ens      equal 4        # selects the ensemble (NVE=0 ; NVT=1 ; NPT(iso)=2 ; NPT(z)=3) 
variable stride   equal 10000    # trajectory frequency 
variable nsteps   equal 5000000  # number of steps 
variable temp     equal 200      # temperature 
variable plumed   equal 0        # turns on plumed 
variable iseed0   equal  15429
variable taskfarm equal 0        # disable job partitioning

shell "touch variables.lmp" 
include variables.lmp 

#########################################################################################################
# Units (eV - ps - angstrom - bar)
#########################################################################################################

units metal

#########################################################################################################
# 3D periodic simulation
#########################################################################################################

boundary p p p

#########################################################################################################
# Atom style - charge/vdw/bonded
#########################################################################################################

atom_style full

#neigh_modify one 43290 page 500000

#########################################################################################################
# Parameters for reciprocal space electrostatics
#########################################################################################################

kspace_style pppm 1.0e-6
kspace_modify fftbench no


#########################################################################################################
# Read the input structure
#########################################################################################################

if "${run_no} == 0" then "read_data coord.lmp" else "read_restart restart.*"

##############################################################################################
##### Atom masses
###############################################################################################

mass   1   12.010
mass   2    1.008
mass   3   12.010
mass   4   16.000

##############################################################################################
#### Covalent bonds parameters                                                                
##############################################################################################

bond_style harmonic 
bond_coeff    1     20.74552   1.3870
bond_coeff    2     15.16452   1.4870
bond_coeff    3     28.10012   1.2140
bond_coeff    4     12.58001   1.5500
bond_coeff    5     14.93036   1.0870

##############################################################################################
#### Covalent angles parameters                                                               
##############################################################################################

angle_style harmonic 
angle_coeff   1     2.91322        119.9701
angle_coeff   2     2.80307        120.1401
angle_coeff   3     2.97783        123.4401
angle_coeff   4     2.67688        118.3401
angle_coeff   5     2.91235        120.9901
angle_coeff   6     2.10144        120.0101
                                                                                              
##############################################################################################
## Covalent dihedral parameters
###############################################################################################
dihedral_style charmm
dihedral_coeff    1   0.15720 2 180  0.0
dihedral_coeff    2   0.15720 2 180  0.0
dihedral_coeff    3   0.04336 2 180  0.0
dihedral_coeff    4   0.04336 2 180  0.0
dihedral_coeff    5   0.01301 2 180  0.0
dihedral_coeff    6   0.01301 2 180  0.0
dihedral_coeff    7   0.01301 2 180  0.0
dihedral_coeff    8   0.15720 2 180  0.0
dihedral_coeff    9   0.15720 2 180  0.0
dihedral_coeff   10   0.15720 2 180  0.0

##############################################################################################
##### Covalent improper dihedral parameters
###############################################################################################

improper_style gulp
improper_coeff    1   0.04770 -1 2
improper_coeff    2   0.45533 -1 2
improper_coeff    3   0.04770 -1 2

##############################################################################################
# Pair potentials                                                                             
##############################################################################################

pair_style lj/cut/coul/long    12.5
pair_modify mix arithmetic
pair_coeff  1  1    0.0037293369    3.3996695094
pair_coeff  2  2    0.0006504657    2.5996424603
pair_coeff  3  3    0.0037293369    3.3996695094
pair_coeff  4  4    0.0091065203    2.9599219020

special_bonds amber

#########################################################################################################
# Parameters for reciprocal space electrostatics
#########################################################################################################

group free id > 0

fix com free momentum 1 linear 1 1 1 angular


#########################################################################################################
# Thermodynamic output
#########################################################################################################

thermo_style custom step temp pe etotal enthalpy vol press ebond eangle edihed eimp evdwl ecoul elong cpu

#########################################################################################################
# Eneergy minimisation
#########################################################################################################

if "${minimise} == 1" then "thermo 1" 
if "${minimise} == 1" then "min_style hftn"
if "${minimise} == 1" then "minimize 1.0e-8 1.0e-10 100000 100000" 
if "${minimise} == 1" then "reset_timestep 0" 

#########################################################################################################
# Free atoms 
#########################################################################################################

group free id > 0 


############################################################################################################
# Timestep in ps
#########################################################################################################

timestep 0.001

#########################################################################################################
# Low temperature run for equilibration
#########################################################################################################

if "${lowt} == 1" then "thermo 10" 
if "${lowt} == 1" then "fix 1 free nve" 
if "${lowt} == 1" then "fix 2 free temp/berendsen 1.0 1.0 0.01" 
if "${lowt} == 1" then "run 1000" 
if "${lowt} == 1" then "reset_timestep 0" 
if "${lowt} == 1" then "unfix 1" 
if "${lowt} == 1" then "unfix 2" 

#########################################################################################################
# Velocity generation
#########################################################################################################

if "${run_no} == 0 && ${taskfarm} == 0" then "velocity free create ${temp} ${iseed0} mom yes dist gaussian"
#if "${run_no} == 0 && ${taskfarm} == 1" then "velocity free create ${temp} ${iseed} mom yes dist gaussian"

#########################################################################################################
# Restart file
#########################################################################################################

restart 100000 restart.1 restart.2

#########################################################################################################
# Trajectory output
#########################################################################################################

dump 1 all dcd ${stride} trajectory.${run_no}.dcd
dump_modify 1 unwrap yes

#########################################################################################################
# Ensembles
#########################################################################################################

thermo 1000
if "${ens} == 0" then "fix 1 free nve"
if "${ens} == 1" then "fix 1 free nvt temp ${temp} ${temp} 0.1 tchain 5"
if "${ens} == 2" then "fix 1 free npt temp ${temp} ${temp} 0.1 iso 1.01325 1.01325 1.0 tchain 5 pchain 5 mtk yes"
if "${ens} == 3" then "fix 1 free npt temp ${temp} ${temp} 0.1 z 1.01325 1.01325 1.0 tchain 5 pchain 5 mtk yes"
if "${ens} == 4" then "fix 1 free nve" "fix 2 free langevin ${temp} ${temp} 0.1 763452 zero yes"

#splits molecules to chunks based on their IDs
compute mol all chunk/atom molecule
#computes the average coordinates of the molecules using the unwrapped positions
#computes the average potential energy of the molecules
compute posx all property/atom xu
compute posy all property/atom yu
compute posz all property/atom zu
compute peatom all pe/atom pair kspace
fix pecmol all ave/chunk 500 20 10000 mol c_posx c_posy c_posz c_peatom ave one file "pecmol.dat"

#########################################################################################################
# Normal MD
#########################################################################################################

if "${plumed} == 0 && ${ens} >= 0" then "run ${nsteps}" 

#########################################################################################################
# PLUMED
#########################################################################################################

if "${plumed} == 1" then "fix 2 all plumed plumedfile plumed.equi.inp outfile plumed.equi.out" 
if "${plumed} == 1" then "run 100000" 
if "${plumed} == 1" then "unfix 2" 
if "${plumed} >= 1" then "fix 3 all plumed plumedfile plumed.mtd.inp outfile plumed.mtd.out" 
if "${plumed} >= 1" then "run ${nsteps}" 

